%nprocshared=16
%mem=59GB
%chk=A_TON_A_A_TD.chk
# td B3LYP/6-31g(d)

A_TON_A_A

0 1
C -0.0221046804 -0.0363587156 -0.0001545777
C 1.3921472115 -0.046153069 -0.000105432
C -0.8147777933 1.0996249587 -0.00015612
C 2.1293272512 1.1416749587 -0.00005205
C -0.0775977469 2.2874530562 -0.0001082453
C 1.3366542763 2.2776590122 -0.0000587716
C 0.7353896707 -2.0593266977 -0.0001867063
C 0.5791604618 4.300626891 -0.0000779492
O 1.7492466884 3.5906141206 -0.0000006134
O -0.4346967206 -1.3493148724 -0.0001856816
N -0.5132730036 3.616120683 -0.0000694241
N 1.8278230548 -1.3748204041 -0.0001035118
H -1.8979873398 1.0796131399 -0.0001850698
H 3.2125372008 1.1616866792 -0.0000055493
H 0.6294921786 -3.1348468561 -0.0002069924
H 0.6850592902 5.3761471156 -0.0000433054

